\ This file has been generated by DOcplex
\ ENCODING=ISO-8859-1
\Problem name: TRP_BigM

Minimize
 obj: thr_0_1_0 + thr_0_1_180 + thr_0_1_360 + thr_1_29_0 + thr_1_29_180
      + thr_1_29_360 + thr_2_11_0 + thr_2_11_180 + thr_2_11_360 + thr_3_9_0
      + thr_3_9_180 + thr_3_9_360 + thr_4_31_0 + thr_4_31_180 + thr_4_31_360
      + thr_5_39_0 + thr_5_39_180 + thr_5_39_360 + thr_6_15_0 + thr_6_15_180
      + thr_6_15_360 + thr_7_39_0 + thr_7_39_180 + thr_7_39_360
Subject To
 c1: - t_0_0 + t_0_1 >= 0
 c2: - t_0_1 + t_0_2 >= 13
 c3: - t_1_0 + t_1_1 >= 0
 c4: - t_1_1 + t_1_2 >= 340
 c5: - t_1_2 + t_1_3 >= 0
 c6: - t_1_3 + t_1_4 >= 112
 c7: - t_1_4 + t_1_5 >= 0
 c8: - t_1_5 + t_1_6 >= 76
 c9: - t_1_6 + t_1_7 >= 0
 c10: - t_1_7 + t_1_8 >= 219
 c11: - t_1_8 + t_1_9 >= 599
 c12: - t_1_9 + t_1_10 >= 104
 c13: - t_1_10 + t_1_11 >= 0
 c14: - t_1_11 + t_1_12 >= 137
 c15: - t_1_12 + t_1_13 >= 180
 c16: - t_1_13 + t_1_14 >= 145
 c17: - t_1_14 + t_1_15 >= 0
 c18: - t_1_15 + t_1_16 >= 177
 c19: - t_1_16 + t_1_17 >= 0
 c20: - t_1_17 + t_1_18 >= 129
 c21: - t_1_18 + t_1_19 >= 0
 c22: - t_1_19 + t_1_20 >= 44
 c23: - t_1_20 + t_1_21 >= 0
 c24: - t_1_21 + t_1_22 >= 144
 c25: - t_1_22 + t_1_23 >= 0
 c26: - t_1_23 + t_1_24 >= 81
 c27: - t_1_24 + t_1_25 >= 480
 c28: - t_1_25 + t_1_26 >= 83
 c29: - t_1_26 + t_1_27 >= 0
 c30: - t_1_27 + t_1_28 >= 139
 c31: - t_1_28 + t_1_29 >= 0
 c32: - t_1_29 + t_1_30 >= 198
 c33: - t_2_0 + t_2_1 >= 0
 c34: - t_2_1 + t_2_2 >= 275
 c35: - t_2_2 + t_2_3 >= 0
 c36: - t_2_3 + t_2_4 >= 205
 c37: - t_2_4 + t_2_5 >= 0
 c38: - t_2_5 + t_2_6 >= 210
 c39: - t_2_6 + t_2_7 >= 30
 c40: - t_2_7 + t_2_8 >= 292
 c41: - t_2_8 + t_2_9 >= 0
 c42: - t_2_9 + t_2_10 >= 188
 c43: - t_2_10 + t_2_11 >= 180
 c44: - t_2_11 + t_2_12 >= 360
 c45: - t_3_0 + t_3_1 >= 659
 c46: - t_3_1 + t_3_2 >= 431
 c47: - t_3_2 + t_3_3 >= 0
 c48: - t_3_3 + t_3_4 >= 309
 c49: - t_3_4 + t_3_5 >= 0
 c50: - t_3_5 + t_3_6 >= 580
 c51: - t_3_6 + t_3_7 >= 240
 c52: - t_3_7 + t_3_8 >= 309
 c53: - t_3_8 + t_3_9 >= 0
 c54: - t_3_9 + t_3_10 >= 299
 c55: - t_4_0 + t_4_1 >= 0
 c56: - t_4_1 + t_4_2 >= 41
 c57: - t_4_2 + t_4_3 >= 0
 c58: - t_4_3 + t_4_4 >= 101
 c59: - t_4_4 + t_4_5 >= 0
 c60: - t_4_5 + t_4_6 >= 208
 c61: - t_4_6 + t_4_7 >= 0
 c62: - t_4_7 + t_4_8 >= 103
 c63: - t_4_8 + t_4_9 >= 0
 c64: - t_4_9 + t_4_10 >= 156
 c65: - t_4_10 + t_4_11 >= 0
 c66: - t_4_11 + t_4_12 >= 407
 c67: - t_4_12 + t_4_13 >= 0
 c68: - t_4_13 + t_4_14 >= 288
 c69: - t_4_14 + t_4_15 >= 0
 c70: - t_4_15 + t_4_16 >= 335
 c71: - t_4_16 + t_4_17 >= 300
 c72: - t_4_17 + t_4_18 >= 470
 c73: - t_4_18 + t_4_19 >= 0
 c74: - t_4_19 + t_4_20 >= 241
 c75: - t_4_20 + t_4_21 >= 0
 c76: - t_4_21 + t_4_22 >= 429
 c77: - t_4_22 + t_4_23 >= 240
 c78: - t_4_23 + t_4_24 >= 372
 c79: - t_4_24 + t_4_25 >= 0
 c80: - t_4_25 + t_4_26 >= 267
 c81: - t_4_26 + t_4_27 >= 0
 c82: - t_4_27 + t_4_28 >= 480
 c83: - t_4_28 + t_4_29 >= 0
 c84: - t_4_29 + t_4_30 >= 215
 c85: - t_4_30 + t_4_31 >= 0
 c86: - t_4_31 + t_4_32 >= 286
 c87: - t_5_0 + t_5_1 >= 0
 c88: - t_5_1 + t_5_2 >= 0
 c89: - t_5_2 + t_5_3 >= 0
 c90: - t_5_3 + t_5_4 >= 113
 c91: - t_5_4 + t_5_5 >= 30
 c92: - t_5_5 + t_5_6 >= 150
 c93: - t_5_6 + t_5_7 >= 30
 c94: - t_5_7 + t_5_8 >= 90
 c95: - t_5_8 + t_5_9 >= 30
 c96: - t_5_9 + t_5_10 >= 120
 c97: - t_5_10 + t_5_11 >= 0
 c98: - t_5_11 + t_5_12 >= 45
 c99: - t_5_12 + t_5_13 >= 0
 c100: - t_5_13 + t_5_14 >= 135
 c101: - t_5_14 + t_5_15 >= 60
 c102: - t_5_15 + t_5_16 >= 210
 c103: - t_5_16 + t_5_17 >= 30
 c104: - t_5_17 + t_5_18 >= 150
 c105: - t_5_18 + t_5_19 >= 30
 c106: - t_5_19 + t_5_20 >= 150
 c107: - t_5_20 + t_5_21 >= 30
 c108: - t_5_21 + t_5_22 >= 90
 c109: - t_5_22 + t_5_23 >= 30
 c110: - t_5_23 + t_5_24 >= 171
 c111: - t_5_24 + t_5_25 >= 0
 c112: - t_5_25 + t_5_26 >= 83
 c113: - t_5_26 + t_5_27 >= 0
 c114: - t_5_27 + t_5_28 >= 126
 c115: - t_5_28 + t_5_29 >= 40
 c116: - t_5_29 + t_5_30 >= 480
 c117: - t_5_30 + t_5_31 >= 180
 c118: - t_5_31 + t_5_32 >= 240
 c119: - t_5_32 + t_5_33 >= 0
 c120: - t_5_33 + t_5_34 >= 210
 c121: - t_5_34 + t_5_35 >= 30
 c122: - t_5_35 + t_5_36 >= 240
 c123: - t_5_36 + t_5_37 >= 0
 c124: - t_5_37 + t_5_38 >= 180
 c125: - t_5_38 + t_5_39 >= 0
 c126: - t_5_39 + t_5_40 >= 360
 c127: - t_6_0 + t_6_1 >= 44
 c128: - t_6_1 + t_6_2 >= 240
 c129: - t_6_2 + t_6_3 >= 180
 c130: - t_6_3 + t_6_4 >= 90
 c131: - t_6_4 + t_6_5 >= 0
 c132: - t_6_5 + t_6_6 >= 30
 c133: - t_6_6 + t_6_7 >= 0
 c134: - t_6_7 + t_6_8 >= 150
 c135: - t_6_8 + t_6_9 >= 30
 c136: - t_6_9 + t_6_10 >= 90
 c137: - t_6_10 + t_6_11 >= 30
 c138: - t_6_11 + t_6_12 >= 90
 c139: - t_6_12 + t_6_13 >= 30
 c140: - t_6_13 + t_6_14 >= 110
 c141: - t_6_14 + t_6_15 >= 0
 c142: - t_6_15 + t_6_16 >= 190
 c143: - t_7_0 + t_7_1 >= 120
 c144: - t_7_1 + t_7_2 >= 150
 c145: - t_7_2 + t_7_3 >= 30
 c146: - t_7_3 + t_7_4 >= 150
 c147: - t_7_4 + t_7_5 >= 30
 c148: - t_7_5 + t_7_6 >= 150
 c149: - t_7_6 + t_7_7 >= 30
 c150: - t_7_7 + t_7_8 >= 30
 c151: - t_7_8 + t_7_9 >= 30
 c152: - t_7_9 + t_7_10 >= 150
 c153: - t_7_10 + t_7_11 >= 0
 c154: - t_7_11 + t_7_12 >= 42
 c155: - t_7_12 + t_7_13 >= 0
 c156: - t_7_13 + t_7_14 >= 128
 c157: - t_7_14 + t_7_15 >= 40
 c158: - t_7_15 + t_7_16 >= 210
 c159: - t_7_16 + t_7_17 >= 30
 c160: - t_7_17 + t_7_18 >= 150
 c161: - t_7_18 + t_7_19 >= 30
 c162: - t_7_19 + t_7_20 >= 90
 c163: - t_7_20 + t_7_21 >= 30
 c164: - t_7_21 + t_7_22 >= 180
 c165: - t_7_22 + t_7_23 >= 180
 c166: - t_7_23 + t_7_24 >= 210
 c167: - t_7_24 + t_7_25 >= 30
 c168: - t_7_25 + t_7_26 >= 84
 c169: - t_7_26 + t_7_27 >= 0
 c170: - t_7_27 + t_7_28 >= 126
 c171: - t_7_28 + t_7_29 >= 30
 c172: - t_7_29 + t_7_30 >= 298
 c173: - t_7_30 + t_7_31 >= 0
 c174: - t_7_31 + t_7_32 >= 205
 c175: - t_7_32 + t_7_33 >= 0
 c176: - t_7_33 + t_7_34 >= 247
 c177: - t_7_34 + t_7_35 >= 30
 c178: - t_7_35 + t_7_36 >= 245
 c179: - t_7_36 + t_7_37 >= 0
 c180: - t_7_37 + t_7_38 >= 175
 c181: - t_7_38 + t_7_39 >= 180
 c182: - t_7_39 + t_7_40 >= 360
 c183: t_0_2 - t_2_11 + 43200 y_0_1_2_11 <= 43200
 c184: t_2_12 - t_0_1 - 43200 y_0_1_2_11 <= 0
 c185: t_0_2 - t_4_21 + 43200 y_0_1_4_21 <= 43200
 c186: t_4_22 - t_0_1 - 43200 y_0_1_4_21 <= 0
 c187: t_0_2 - t_5_39 + 43200 y_0_1_5_39 <= 43200
 c188: t_5_40 - t_0_1 - 43200 y_0_1_5_39 <= 0
 c189: t_0_2 - t_7_39 + 43200 y_0_1_7_39 <= 43200
 c190: t_7_40 - t_0_1 - 43200 y_0_1_7_39 <= 0
 c191: t_1_2 - t_2_1 + 43200 y_1_1_2_1 <= 43200
 c192: t_2_2 - t_1_1 - 43200 y_1_1_2_1 <= 0
 c193: t_1_2 - t_4_11 + 43200 y_1_1_4_11 <= 43200
 c194: t_4_12 - t_1_1 - 43200 y_1_1_4_11 <= 0
 c195: t_1_4 - t_4_9 + 43200 y_1_3_4_9 <= 43200
 c196: t_4_10 - t_1_3 - 43200 y_1_3_4_9 <= 0
 c197: t_1_6 - t_4_7 + 43200 y_1_5_4_7 <= 43200
 c198: t_4_8 - t_1_5 - 43200 y_1_5_4_7 <= 0
 c199: t_1_8 - t_4_5 + 43200 y_1_7_4_5 <= 43200
 c200: t_4_6 - t_1_7 - 43200 y_1_7_4_5 <= 0
 c201: t_1_10 - t_4_3 + 43200 y_1_9_4_3 <= 43200
 c202: t_4_4 - t_1_9 - 43200 y_1_9_4_3 <= 0
 c203: t_1_12 - t_4_1 + 43200 y_1_11_4_1 <= 43200
 c204: t_4_2 - t_1_11 - 43200 y_1_11_4_1 <= 0
 c205: t_1_2 - t_5_29 + 43200 y_1_1_5_29 <= 43200
 c206: t_5_30 - t_1_1 - 43200 y_1_1_5_29 <= 0
 c207: t_1_4 - t_5_27 + 43200 y_1_3_5_27 <= 43200
 c208: t_5_28 - t_1_3 - 43200 y_1_3_5_27 <= 0
 c209: t_1_6 - t_5_25 + 43200 y_1_5_5_25 <= 43200
 c210: t_5_26 - t_1_5 - 43200 y_1_5_5_25 <= 0
 c211: t_1_8 - t_5_23 + 43200 y_1_7_5_23 <= 43200
 c212: t_5_24 - t_1_7 - 43200 y_1_7_5_23 <= 0
 c213: t_1_10 - t_5_21 + 43200 y_1_9_5_21 <= 43200
 c214: t_5_22 - t_1_9 - 43200 y_1_9_5_21 <= 0
 c215: t_1_12 - t_5_19 + 43200 y_1_11_5_19 <= 43200
 c216: t_5_20 - t_1_11 - 43200 y_1_11_5_19 <= 0
 c217: t_1_14 - t_5_17 + 43200 y_1_13_5_17 <= 43200
 c218: t_5_18 - t_1_13 - 43200 y_1_13_5_17 <= 0
 c219: t_1_16 - t_5_15 + 43200 y_1_15_5_15 <= 43200
 c220: t_5_16 - t_1_15 - 43200 y_1_15_5_15 <= 0
 c221: t_1_18 - t_5_13 + 43200 y_1_17_5_13 <= 43200
 c222: t_5_14 - t_1_17 - 43200 y_1_17_5_13 <= 0
 c223: t_1_20 - t_5_11 + 43200 y_1_19_5_11 <= 43200
 c224: t_5_12 - t_1_19 - 43200 y_1_19_5_11 <= 0
 c225: t_1_22 - t_5_9 + 43200 y_1_21_5_9 <= 43200
 c226: t_5_10 - t_1_21 - 43200 y_1_21_5_9 <= 0
 c227: t_1_24 - t_5_7 + 43200 y_1_23_5_7 <= 43200
 c228: t_5_8 - t_1_23 - 43200 y_1_23_5_7 <= 0
 c229: t_1_26 - t_5_5 + 43200 y_1_25_5_5 <= 43200
 c230: t_5_6 - t_1_25 - 43200 y_1_25_5_5 <= 0
 c231: t_1_28 - t_5_3 + 43200 y_1_27_5_3 <= 43200
 c232: t_5_4 - t_1_27 - 43200 y_1_27_5_3 <= 0
 c233: t_1_30 - t_5_1 + 43200 y_1_29_5_1 <= 43200
 c234: t_5_2 - t_1_29 - 43200 y_1_29_5_1 <= 0
 c235: t_1_16 - t_6_1 + 43200 y_1_15_6_1 <= 43200
 c236: t_6_2 - t_1_15 - 43200 y_1_15_6_1 <= 0
 c237: t_1_18 - t_6_3 + 43200 y_1_17_6_3 <= 43200
 c238: t_6_4 - t_1_17 - 43200 y_1_17_6_3 <= 0
 c239: t_1_20 - t_6_5 + 43200 y_1_19_6_5 <= 43200
 c240: t_6_6 - t_1_19 - 43200 y_1_19_6_5 <= 0
 c241: t_1_22 - t_6_7 + 43200 y_1_21_6_7 <= 43200
 c242: t_6_8 - t_1_21 - 43200 y_1_21_6_7 <= 0
 c243: t_1_24 - t_6_9 + 43200 y_1_23_6_9 <= 43200
 c244: t_6_10 - t_1_23 - 43200 y_1_23_6_9 <= 0
 c245: t_1_26 - t_6_11 + 43200 y_1_25_6_11 <= 43200
 c246: t_6_12 - t_1_25 - 43200 y_1_25_6_11 <= 0
 c247: t_1_28 - t_6_13 + 43200 y_1_27_6_13 <= 43200
 c248: t_6_14 - t_1_27 - 43200 y_1_27_6_13 <= 0
 c249: t_1_30 - t_6_15 + 43200 y_1_29_6_15 <= 43200
 c250: t_6_16 - t_1_29 - 43200 y_1_29_6_15 <= 0
 c251: t_1_2 - t_7_29 + 43200 y_1_1_7_29 <= 43200
 c252: t_7_30 - t_1_1 - 43200 y_1_1_7_29 <= 0
 c253: t_1_4 - t_7_27 + 43200 y_1_3_7_27 <= 43200
 c254: t_7_28 - t_1_3 - 43200 y_1_3_7_27 <= 0
 c255: t_1_6 - t_7_25 + 43200 y_1_5_7_25 <= 43200
 c256: t_7_26 - t_1_5 - 43200 y_1_5_7_25 <= 0
 c257: t_1_8 - t_7_23 + 43200 y_1_7_7_23 <= 43200
 c258: t_7_24 - t_1_7 - 43200 y_1_7_7_23 <= 0
 c259: t_1_10 - t_7_21 + 43200 y_1_9_7_21 <= 43200
 c260: t_7_22 - t_1_9 - 43200 y_1_9_7_21 <= 0
 c261: t_1_12 - t_7_19 + 43200 y_1_11_7_19 <= 43200
 c262: t_7_20 - t_1_11 - 43200 y_1_11_7_19 <= 0
 c263: t_1_14 - t_7_17 + 43200 y_1_13_7_17 <= 43200
 c264: t_7_18 - t_1_13 - 43200 y_1_13_7_17 <= 0
 c265: t_1_16 - t_7_15 + 43200 y_1_15_7_15 <= 43200
 c266: t_7_16 - t_1_15 - 43200 y_1_15_7_15 <= 0
 c267: t_1_18 - t_7_13 + 43200 y_1_17_7_13 <= 43200
 c268: t_7_14 - t_1_17 - 43200 y_1_17_7_13 <= 0
 c269: t_1_20 - t_7_11 + 43200 y_1_19_7_11 <= 43200
 c270: t_7_12 - t_1_19 - 43200 y_1_19_7_11 <= 0
 c271: t_1_22 - t_7_9 + 43200 y_1_21_7_9 <= 43200
 c272: t_7_10 - t_1_21 - 43200 y_1_21_7_9 <= 0
 c273: t_1_24 - t_7_7 + 43200 y_1_23_7_7 <= 43200
 c274: t_7_8 - t_1_23 - 43200 y_1_23_7_7 <= 0
 c275: t_1_26 - t_7_5 + 43200 y_1_25_7_5 <= 43200
 c276: t_7_6 - t_1_25 - 43200 y_1_25_7_5 <= 0
 c277: t_1_28 - t_7_3 + 43200 y_1_27_7_3 <= 43200
 c278: t_7_4 - t_1_27 - 43200 y_1_27_7_3 <= 0
 c279: t_1_30 - t_7_1 + 43200 y_1_29_7_1 <= 43200
 c280: t_7_2 - t_1_29 - 43200 y_1_29_7_1 <= 0
 c281: t_2_2 - t_4_11 + 43200 y_2_1_4_11 <= 43200
 c282: t_4_12 - t_2_1 - 43200 y_2_1_4_11 <= 0
 c283: t_2_4 - t_4_13 + 43200 y_2_3_4_13 <= 43200
 c284: t_4_14 - t_2_3 - 43200 y_2_3_4_13 <= 0
 c285: t_2_6 - t_4_15 + 43200 y_2_5_4_15 <= 43200
 c286: t_4_16 - t_2_5 - 43200 y_2_5_4_15 <= 0
 c287: t_2_8 - t_4_17 + 43200 y_2_7_4_17 <= 43200
 c288: t_4_18 - t_2_7 - 43200 y_2_7_4_17 <= 0
 c289: t_2_10 - t_4_19 + 43200 y_2_9_4_19 <= 43200
 c290: t_4_20 - t_2_9 - 43200 y_2_9_4_19 <= 0
 c291: t_2_12 - t_4_21 + 43200 y_2_11_4_21 <= 43200
 c292: t_4_22 - t_2_11 - 43200 y_2_11_4_21 <= 0
 c293: t_2_2 - t_5_29 + 43200 y_2_1_5_29 <= 43200
 c294: t_5_30 - t_2_1 - 43200 y_2_1_5_29 <= 0
 c295: t_2_4 - t_5_31 + 43200 y_2_3_5_31 <= 43200
 c296: t_5_32 - t_2_3 - 43200 y_2_3_5_31 <= 0
 c297: t_2_6 - t_5_33 + 43200 y_2_5_5_33 <= 43200
 c298: t_5_34 - t_2_5 - 43200 y_2_5_5_33 <= 0
 c299: t_2_8 - t_5_35 + 43200 y_2_7_5_35 <= 43200
 c300: t_5_36 - t_2_7 - 43200 y_2_7_5_35 <= 0
 c301: t_2_10 - t_5_37 + 43200 y_2_9_5_37 <= 43200
 c302: t_5_38 - t_2_9 - 43200 y_2_9_5_37 <= 0
 c303: t_2_12 - t_5_39 + 43200 y_2_11_5_39 <= 43200
 c304: t_5_40 - t_2_11 - 43200 y_2_11_5_39 <= 0
 c305: t_2_2 - t_7_29 + 43200 y_2_1_7_29 <= 43200
 c306: t_7_30 - t_2_1 - 43200 y_2_1_7_29 <= 0
 c307: t_2_4 - t_7_31 + 43200 y_2_3_7_31 <= 43200
 c308: t_7_32 - t_2_3 - 43200 y_2_3_7_31 <= 0
 c309: t_2_6 - t_7_33 + 43200 y_2_5_7_33 <= 43200
 c310: t_7_34 - t_2_5 - 43200 y_2_5_7_33 <= 0
 c311: t_2_8 - t_7_35 + 43200 y_2_7_7_35 <= 43200
 c312: t_7_36 - t_2_7 - 43200 y_2_7_7_35 <= 0
 c313: t_2_10 - t_7_37 + 43200 y_2_9_7_37 <= 43200
 c314: t_7_38 - t_2_9 - 43200 y_2_9_7_37 <= 0
 c315: t_2_12 - t_7_39 + 43200 y_2_11_7_39 <= 43200
 c316: t_7_40 - t_2_11 - 43200 y_2_11_7_39 <= 0
 c317: t_3_2 - t_4_23 + 43200 y_3_1_4_23 <= 43200
 c318: t_4_24 - t_3_1 - 43200 y_3_1_4_23 <= 0
 c319: t_3_4 - t_4_25 + 43200 y_3_3_4_25 <= 43200
 c320: t_4_26 - t_3_3 - 43200 y_3_3_4_25 <= 0
 c321: t_3_6 - t_4_27 + 43200 y_3_5_4_27 <= 43200
 c322: t_4_28 - t_3_5 - 43200 y_3_5_4_27 <= 0
 c323: t_3_8 - t_4_29 + 43200 y_3_7_4_29 <= 43200
 c324: t_4_30 - t_3_7 - 43200 y_3_7_4_29 <= 0
 c325: t_3_10 - t_4_31 + 43200 y_3_9_4_31 <= 43200
 c326: t_4_32 - t_3_9 - 43200 y_3_9_4_31 <= 0
 c327: t_4_2 - t_5_19 + 43200 y_4_1_5_19 <= 43200
 c328: t_5_20 - t_4_1 - 43200 y_4_1_5_19 <= 0
 c329: t_4_4 - t_5_21 + 43200 y_4_3_5_21 <= 43200
 c330: t_5_22 - t_4_3 - 43200 y_4_3_5_21 <= 0
 c331: t_4_6 - t_5_23 + 43200 y_4_5_5_23 <= 43200
 c332: t_5_24 - t_4_5 - 43200 y_4_5_5_23 <= 0
 c333: t_4_8 - t_5_25 + 43200 y_4_7_5_25 <= 43200
 c334: t_5_26 - t_4_7 - 43200 y_4_7_5_25 <= 0
 c335: t_4_10 - t_5_27 + 43200 y_4_9_5_27 <= 43200
 c336: t_5_28 - t_4_9 - 43200 y_4_9_5_27 <= 0
 c337: t_4_12 - t_5_29 + 43200 y_4_11_5_29 <= 43200
 c338: t_5_30 - t_4_11 - 43200 y_4_11_5_29 <= 0
 c339: t_4_14 - t_5_31 + 43200 y_4_13_5_31 <= 43200
 c340: t_5_32 - t_4_13 - 43200 y_4_13_5_31 <= 0
 c341: t_4_16 - t_5_33 + 43200 y_4_15_5_33 <= 43200
 c342: t_5_34 - t_4_15 - 43200 y_4_15_5_33 <= 0
 c343: t_4_18 - t_5_35 + 43200 y_4_17_5_35 <= 43200
 c344: t_5_36 - t_4_17 - 43200 y_4_17_5_35 <= 0
 c345: t_4_20 - t_5_37 + 43200 y_4_19_5_37 <= 43200
 c346: t_5_38 - t_4_19 - 43200 y_4_19_5_37 <= 0
 c347: t_4_22 - t_5_39 + 43200 y_4_21_5_39 <= 43200
 c348: t_5_40 - t_4_21 - 43200 y_4_21_5_39 <= 0
 c349: t_4_2 - t_7_19 + 43200 y_4_1_7_19 <= 43200
 c350: t_7_20 - t_4_1 - 43200 y_4_1_7_19 <= 0
 c351: t_4_4 - t_7_21 + 43200 y_4_3_7_21 <= 43200
 c352: t_7_22 - t_4_3 - 43200 y_4_3_7_21 <= 0
 c353: t_4_6 - t_7_23 + 43200 y_4_5_7_23 <= 43200
 c354: t_7_24 - t_4_5 - 43200 y_4_5_7_23 <= 0
 c355: t_4_8 - t_7_25 + 43200 y_4_7_7_25 <= 43200
 c356: t_7_26 - t_4_7 - 43200 y_4_7_7_25 <= 0
 c357: t_4_10 - t_7_27 + 43200 y_4_9_7_27 <= 43200
 c358: t_7_28 - t_4_9 - 43200 y_4_9_7_27 <= 0
 c359: t_4_12 - t_7_29 + 43200 y_4_11_7_29 <= 43200
 c360: t_7_30 - t_4_11 - 43200 y_4_11_7_29 <= 0
 c361: t_4_14 - t_7_31 + 43200 y_4_13_7_31 <= 43200
 c362: t_7_32 - t_4_13 - 43200 y_4_13_7_31 <= 0
 c363: t_4_16 - t_7_33 + 43200 y_4_15_7_33 <= 43200
 c364: t_7_34 - t_4_15 - 43200 y_4_15_7_33 <= 0
 c365: t_4_18 - t_7_35 + 43200 y_4_17_7_35 <= 43200
 c366: t_7_36 - t_4_17 - 43200 y_4_17_7_35 <= 0
 c367: t_4_20 - t_7_37 + 43200 y_4_19_7_37 <= 43200
 c368: t_7_38 - t_4_19 - 43200 y_4_19_7_37 <= 0
 c369: t_4_22 - t_7_39 + 43200 y_4_21_7_39 <= 43200
 c370: t_7_40 - t_4_21 - 43200 y_4_21_7_39 <= 0
 c371: t_5_2 - t_6_15 + 43200 y_5_1_6_15 <= 43200
 c372: t_6_16 - t_5_1 - 43200 y_5_1_6_15 <= 0
 c373: t_5_4 - t_6_13 + 43200 y_5_3_6_13 <= 43200
 c374: t_6_14 - t_5_3 - 43200 y_5_3_6_13 <= 0
 c375: t_5_6 - t_6_11 + 43200 y_5_5_6_11 <= 43200
 c376: t_6_12 - t_5_5 - 43200 y_5_5_6_11 <= 0
 c377: t_5_8 - t_6_9 + 43200 y_5_7_6_9 <= 43200
 c378: t_6_10 - t_5_7 - 43200 y_5_7_6_9 <= 0
 c379: t_5_10 - t_6_7 + 43200 y_5_9_6_7 <= 43200
 c380: t_6_8 - t_5_9 - 43200 y_5_9_6_7 <= 0
 c381: t_5_12 - t_6_5 + 43200 y_5_11_6_5 <= 43200
 c382: t_6_6 - t_5_11 - 43200 y_5_11_6_5 <= 0
 c383: t_5_14 - t_6_3 + 43200 y_5_13_6_3 <= 43200
 c384: t_6_4 - t_5_13 - 43200 y_5_13_6_3 <= 0
 c385: t_5_16 - t_6_1 + 43200 y_5_15_6_1 <= 43200
 c386: t_6_2 - t_5_15 - 43200 y_5_15_6_1 <= 0
 c387: t_5_2 - t_7_1 + 43200 y_5_1_7_1 <= 43200
 c388: t_7_2 - t_5_1 - 43200 y_5_1_7_1 <= 0
 c389: t_5_4 - t_7_3 + 43200 y_5_3_7_3 <= 43200
 c390: t_7_4 - t_5_3 - 43200 y_5_3_7_3 <= 0
 c391: t_5_6 - t_7_5 + 43200 y_5_5_7_5 <= 43200
 c392: t_7_6 - t_5_5 - 43200 y_5_5_7_5 <= 0
 c393: t_5_8 - t_7_7 + 43200 y_5_7_7_7 <= 43200
 c394: t_7_8 - t_5_7 - 43200 y_5_7_7_7 <= 0
 c395: t_5_10 - t_7_9 + 43200 y_5_9_7_9 <= 43200
 c396: t_7_10 - t_5_9 - 43200 y_5_9_7_9 <= 0
 c397: t_5_12 - t_7_11 + 43200 y_5_11_7_11 <= 43200
 c398: t_7_12 - t_5_11 - 43200 y_5_11_7_11 <= 0
 c399: t_5_14 - t_7_13 + 43200 y_5_13_7_13 <= 43200
 c400: t_7_14 - t_5_13 - 43200 y_5_13_7_13 <= 0
 c401: t_5_16 - t_7_15 + 43200 y_5_15_7_15 <= 43200
 c402: t_7_16 - t_5_15 - 43200 y_5_15_7_15 <= 0
 c403: t_5_18 - t_7_17 + 43200 y_5_17_7_17 <= 43200
 c404: t_7_18 - t_5_17 - 43200 y_5_17_7_17 <= 0
 c405: t_5_20 - t_7_19 + 43200 y_5_19_7_19 <= 43200
 c406: t_7_20 - t_5_19 - 43200 y_5_19_7_19 <= 0
 c407: t_5_22 - t_7_21 + 43200 y_5_21_7_21 <= 43200
 c408: t_7_22 - t_5_21 - 43200 y_5_21_7_21 <= 0
 c409: t_5_24 - t_7_23 + 43200 y_5_23_7_23 <= 43200
 c410: t_7_24 - t_5_23 - 43200 y_5_23_7_23 <= 0
 c411: t_5_26 - t_7_25 + 43200 y_5_25_7_25 <= 43200
 c412: t_7_26 - t_5_25 - 43200 y_5_25_7_25 <= 0
 c413: t_5_28 - t_7_27 + 43200 y_5_27_7_27 <= 43200
 c414: t_7_28 - t_5_27 - 43200 y_5_27_7_27 <= 0
 c415: t_5_30 - t_7_29 + 43200 y_5_29_7_29 <= 43200
 c416: t_7_30 - t_5_29 - 43200 y_5_29_7_29 <= 0
 c417: t_5_32 - t_7_31 + 43200 y_5_31_7_31 <= 43200
 c418: t_7_32 - t_5_31 - 43200 y_5_31_7_31 <= 0
 c419: t_5_34 - t_7_33 + 43200 y_5_33_7_33 <= 43200
 c420: t_7_34 - t_5_33 - 43200 y_5_33_7_33 <= 0
 c421: t_5_36 - t_7_35 + 43200 y_5_35_7_35 <= 43200
 c422: t_7_36 - t_5_35 - 43200 y_5_35_7_35 <= 0
 c423: t_5_38 - t_7_37 + 43200 y_5_37_7_37 <= 43200
 c424: t_7_38 - t_5_37 - 43200 y_5_37_7_37 <= 0
 c425: t_5_40 - t_7_39 + 43200 y_5_39_7_39 <= 43200
 c426: t_7_40 - t_5_39 - 43200 y_5_39_7_39 <= 0
 c427: t_6_2 - t_7_15 + 43200 y_6_1_7_15 <= 43200
 c428: t_7_16 - t_6_1 - 43200 y_6_1_7_15 <= 0
 c429: t_6_4 - t_7_13 + 43200 y_6_3_7_13 <= 43200
 c430: t_7_14 - t_6_3 - 43200 y_6_3_7_13 <= 0
 c431: t_6_6 - t_7_11 + 43200 y_6_5_7_11 <= 43200
 c432: t_7_12 - t_6_5 - 43200 y_6_5_7_11 <= 0
 c433: t_6_8 - t_7_9 + 43200 y_6_7_7_9 <= 43200
 c434: t_7_10 - t_6_7 - 43200 y_6_7_7_9 <= 0
 c435: t_6_10 - t_7_7 + 43200 y_6_9_7_7 <= 43200
 c436: t_7_8 - t_6_9 - 43200 y_6_9_7_7 <= 0
 c437: t_6_12 - t_7_5 + 43200 y_6_11_7_5 <= 43200
 c438: t_7_6 - t_6_11 - 43200 y_6_11_7_5 <= 0
 c439: t_6_14 - t_7_3 + 43200 y_6_13_7_3 <= 43200
 c440: t_7_4 - t_6_13 - 43200 y_6_13_7_3 <= 0
 c441: t_6_16 - t_7_1 + 43200 y_6_15_7_1 <= 43200
 c442: t_7_2 - t_6_15 - 43200 y_6_15_7_1 <= 0
 c443: t_0_1 - 43200 thr_0_1_0 <= -360
 c444: t_0_1 - 43200 thr_0_1_180 <= -180
 c445: t_0_1 - 43200 thr_0_1_360 <= 0
 c446: t_1_29 - 43200 thr_1_29_0 <= -1278
 c447: t_1_29 - 43200 thr_1_29_180 <= -1098
 c448: t_1_29 - 43200 thr_1_29_360 <= -918
 c449: t_2_11 - 43200 thr_2_11_0 <= 1380
 c450: t_2_11 - 43200 thr_2_11_180 <= 1560
 c451: t_2_11 - 43200 thr_2_11_360 <= 1740
 c452: t_3_9 - 43200 thr_3_9_0 <= 6489
 c453: t_3_9 - 43200 thr_3_9_180 <= 6669
 c454: t_3_9 - 43200 thr_3_9_360 <= 6849
 c455: t_4_31 - 43200 thr_4_31_0 <= 4574
 c456: t_4_31 - 43200 thr_4_31_180 <= 4754
 c457: t_4_31 - 43200 thr_4_31_360 <= 4934
 c458: t_5_39 - 43200 thr_5_39_0 <= 3180
 c459: t_5_39 - 43200 thr_5_39_180 <= 3360
 c460: t_5_39 - 43200 thr_5_39_360 <= 3540
 c461: t_6_15 - 43200 thr_6_15_0 <= 1070
 c462: t_6_15 - 43200 thr_6_15_180 <= 1250
 c463: t_6_15 - 43200 thr_6_15_360 <= 1430
 c464: t_7_39 - 43200 thr_7_39_0 <= 4980
 c465: t_7_39 - 43200 thr_7_39_180 <= 5160
 c466: t_7_39 - 43200 thr_7_39_360 <= 5340

Bounds
       t_0_0 <= 43200
       t_0_1 <= 43200
 13 <= t_0_2 <= 43200
       t_1_0 <= 43200
       t_1_1 <= 43200
 340 <= t_1_2 <= 43200
 340 <= t_1_3 <= 43200
 452 <= t_1_4 <= 43200
 452 <= t_1_5 <= 43200
 528 <= t_1_6 <= 43200
 528 <= t_1_7 <= 43200
 747 <= t_1_8 <= 43200
 1346 <= t_1_9 <= 43200
 1450 <= t_1_10 <= 43200
 1450 <= t_1_11 <= 43200
 1587 <= t_1_12 <= 43200
 1767 <= t_1_13 <= 43200
 1912 <= t_1_14 <= 43200
 1912 <= t_1_15 <= 43200
 2089 <= t_1_16 <= 43200
 2089 <= t_1_17 <= 43200
 2218 <= t_1_18 <= 43200
 2218 <= t_1_19 <= 43200
 2262 <= t_1_20 <= 43200
 2262 <= t_1_21 <= 43200
 2406 <= t_1_22 <= 43200
 2406 <= t_1_23 <= 43200
 2487 <= t_1_24 <= 43200
 2967 <= t_1_25 <= 43200
 3050 <= t_1_26 <= 43200
 3050 <= t_1_27 <= 43200
 3189 <= t_1_28 <= 43200
 3189 <= t_1_29 <= 43200
 3387 <= t_1_30 <= 43200
       t_2_0 <= 43200
       t_2_1 <= 43200
 275 <= t_2_2 <= 43200
 275 <= t_2_3 <= 43200
 480 <= t_2_4 <= 43200
 480 <= t_2_5 <= 43200
 690 <= t_2_6 <= 43200
 720 <= t_2_7 <= 43200
 1012 <= t_2_8 <= 43200
 1012 <= t_2_9 <= 43200
 1200 <= t_2_10 <= 43200
 1380 <= t_2_11 <= 43200
 1740 <= t_2_12 <= 43200
 3961 <= t_3_0 <= 43200
 4620 <= t_3_1 <= 43200
 5051 <= t_3_2 <= 43200
 5051 <= t_3_3 <= 43200
 5360 <= t_3_4 <= 43200
 5360 <= t_3_5 <= 43200
 5940 <= t_3_6 <= 43200
 6180 <= t_3_7 <= 43200
 6489 <= t_3_8 <= 43200
 6489 <= t_3_9 <= 43200
 6788 <= t_3_10 <= 43200
       t_4_0 <= 43200
       t_4_1 <= 43200
 41 <= t_4_2 <= 43200
 41 <= t_4_3 <= 43200
 142 <= t_4_4 <= 43200
 142 <= t_4_5 <= 43200
 350 <= t_4_6 <= 43200
 350 <= t_4_7 <= 43200
 453 <= t_4_8 <= 43200
 453 <= t_4_9 <= 43200
 609 <= t_4_10 <= 43200
 609 <= t_4_11 <= 43200
 1016 <= t_4_12 <= 43200
 1016 <= t_4_13 <= 43200
 1304 <= t_4_14 <= 43200
 1304 <= t_4_15 <= 43200
 1639 <= t_4_16 <= 43200
 1939 <= t_4_17 <= 43200
 2409 <= t_4_18 <= 43200
 2409 <= t_4_19 <= 43200
 2650 <= t_4_20 <= 43200
 2650 <= t_4_21 <= 43200
 3079 <= t_4_22 <= 43200
 3319 <= t_4_23 <= 43200
 3691 <= t_4_24 <= 43200
 3691 <= t_4_25 <= 43200
 3958 <= t_4_26 <= 43200
 3958 <= t_4_27 <= 43200
 4438 <= t_4_28 <= 43200
 4438 <= t_4_29 <= 43200
 4653 <= t_4_30 <= 43200
 4653 <= t_4_31 <= 43200
 4939 <= t_4_32 <= 43200
       t_5_0 <= 43200
       t_5_1 <= 43200
       t_5_2 <= 43200
       t_5_3 <= 43200
 113 <= t_5_4 <= 43200
 143 <= t_5_5 <= 43200
 293 <= t_5_6 <= 43200
 323 <= t_5_7 <= 43200
 413 <= t_5_8 <= 43200
 443 <= t_5_9 <= 43200
 563 <= t_5_10 <= 43200
 563 <= t_5_11 <= 43200
 608 <= t_5_12 <= 43200
 608 <= t_5_13 <= 43200
 743 <= t_5_14 <= 43200
 803 <= t_5_15 <= 43200
 1013 <= t_5_16 <= 43200
 1043 <= t_5_17 <= 43200
 1193 <= t_5_18 <= 43200
 1223 <= t_5_19 <= 43200
 1373 <= t_5_20 <= 43200
 1403 <= t_5_21 <= 43200
 1493 <= t_5_22 <= 43200
 1523 <= t_5_23 <= 43200
 1694 <= t_5_24 <= 43200
 1694 <= t_5_25 <= 43200
 1777 <= t_5_26 <= 43200
 1777 <= t_5_27 <= 43200
 1903 <= t_5_28 <= 43200
 1943 <= t_5_29 <= 43200
 2423 <= t_5_30 <= 43200
 2603 <= t_5_31 <= 43200
 2843 <= t_5_32 <= 43200
 2843 <= t_5_33 <= 43200
 3053 <= t_5_34 <= 43200
 3083 <= t_5_35 <= 43200
 3323 <= t_5_36 <= 43200
 3323 <= t_5_37 <= 43200
 3503 <= t_5_38 <= 43200
 3503 <= t_5_39 <= 43200
 3863 <= t_5_40 <= 43200
 14 <= t_6_0 <= 43200
 58 <= t_6_1 <= 43200
 298 <= t_6_2 <= 43200
 478 <= t_6_3 <= 43200
 568 <= t_6_4 <= 43200
 568 <= t_6_5 <= 43200
 598 <= t_6_6 <= 43200
 598 <= t_6_7 <= 43200
 748 <= t_6_8 <= 43200
 778 <= t_6_9 <= 43200
 868 <= t_6_10 <= 43200
 898 <= t_6_11 <= 43200
 988 <= t_6_12 <= 43200
 1018 <= t_6_13 <= 43200
 1128 <= t_6_14 <= 43200
 1128 <= t_6_15 <= 43200
 1318 <= t_6_16 <= 43200
 1140 <= t_7_0 <= 43200
 1260 <= t_7_1 <= 43200
 1410 <= t_7_2 <= 43200
 1440 <= t_7_3 <= 43200
 1590 <= t_7_4 <= 43200
 1620 <= t_7_5 <= 43200
 1770 <= t_7_6 <= 43200
 1800 <= t_7_7 <= 43200
 1830 <= t_7_8 <= 43200
 1860 <= t_7_9 <= 43200
 2010 <= t_7_10 <= 43200
 2010 <= t_7_11 <= 43200
 2052 <= t_7_12 <= 43200
 2052 <= t_7_13 <= 43200
 2180 <= t_7_14 <= 43200
 2220 <= t_7_15 <= 43200
 2430 <= t_7_16 <= 43200
 2460 <= t_7_17 <= 43200
 2610 <= t_7_18 <= 43200
 2640 <= t_7_19 <= 43200
 2730 <= t_7_20 <= 43200
 2760 <= t_7_21 <= 43200
 2940 <= t_7_22 <= 43200
 3120 <= t_7_23 <= 43200
 3330 <= t_7_24 <= 43200
 3360 <= t_7_25 <= 43200
 3444 <= t_7_26 <= 43200
 3444 <= t_7_27 <= 43200
 3570 <= t_7_28 <= 43200
 3600 <= t_7_29 <= 43200
 3898 <= t_7_30 <= 43200
 3898 <= t_7_31 <= 43200
 4103 <= t_7_32 <= 43200
 4103 <= t_7_33 <= 43200
 4350 <= t_7_34 <= 43200
 4380 <= t_7_35 <= 43200
 4625 <= t_7_36 <= 43200
 4625 <= t_7_37 <= 43200
 4800 <= t_7_38 <= 43200
 4980 <= t_7_39 <= 43200
 5340 <= t_7_40 <= 43200
 0 <= y_0_1_2_11 <= 1
 0 <= y_0_1_4_21 <= 1
 0 <= y_0_1_5_39 <= 1
 0 <= y_0_1_7_39 <= 1
 0 <= y_1_1_2_1 <= 1
 0 <= y_1_1_4_11 <= 1
 0 <= y_1_3_4_9 <= 1
 0 <= y_1_5_4_7 <= 1
 0 <= y_1_7_4_5 <= 1
 0 <= y_1_9_4_3 <= 1
 0 <= y_1_11_4_1 <= 1
 0 <= y_1_1_5_29 <= 1
 0 <= y_1_3_5_27 <= 1
 0 <= y_1_5_5_25 <= 1
 0 <= y_1_7_5_23 <= 1
 0 <= y_1_9_5_21 <= 1
 0 <= y_1_11_5_19 <= 1
 0 <= y_1_13_5_17 <= 1
 0 <= y_1_15_5_15 <= 1
 0 <= y_1_17_5_13 <= 1
 0 <= y_1_19_5_11 <= 1
 0 <= y_1_21_5_9 <= 1
 0 <= y_1_23_5_7 <= 1
 0 <= y_1_25_5_5 <= 1
 0 <= y_1_27_5_3 <= 1
 0 <= y_1_29_5_1 <= 1
 0 <= y_1_15_6_1 <= 1
 0 <= y_1_17_6_3 <= 1
 0 <= y_1_19_6_5 <= 1
 0 <= y_1_21_6_7 <= 1
 0 <= y_1_23_6_9 <= 1
 0 <= y_1_25_6_11 <= 1
 0 <= y_1_27_6_13 <= 1
 0 <= y_1_29_6_15 <= 1
 0 <= y_1_1_7_29 <= 1
 0 <= y_1_3_7_27 <= 1
 0 <= y_1_5_7_25 <= 1
 0 <= y_1_7_7_23 <= 1
 0 <= y_1_9_7_21 <= 1
 0 <= y_1_11_7_19 <= 1
 0 <= y_1_13_7_17 <= 1
 0 <= y_1_15_7_15 <= 1
 0 <= y_1_17_7_13 <= 1
 0 <= y_1_19_7_11 <= 1
 0 <= y_1_21_7_9 <= 1
 0 <= y_1_23_7_7 <= 1
 0 <= y_1_25_7_5 <= 1
 0 <= y_1_27_7_3 <= 1
 0 <= y_1_29_7_1 <= 1
 0 <= y_2_1_4_11 <= 1
 0 <= y_2_3_4_13 <= 1
 0 <= y_2_5_4_15 <= 1
 0 <= y_2_7_4_17 <= 1
 0 <= y_2_9_4_19 <= 1
 0 <= y_2_11_4_21 <= 1
 0 <= y_2_1_5_29 <= 1
 0 <= y_2_3_5_31 <= 1
 0 <= y_2_5_5_33 <= 1
 0 <= y_2_7_5_35 <= 1
 0 <= y_2_9_5_37 <= 1
 0 <= y_2_11_5_39 <= 1
 0 <= y_2_1_7_29 <= 1
 0 <= y_2_3_7_31 <= 1
 0 <= y_2_5_7_33 <= 1
 0 <= y_2_7_7_35 <= 1
 0 <= y_2_9_7_37 <= 1
 0 <= y_2_11_7_39 <= 1
 0 <= y_3_1_4_23 <= 1
 0 <= y_3_3_4_25 <= 1
 0 <= y_3_5_4_27 <= 1
 0 <= y_3_7_4_29 <= 1
 0 <= y_3_9_4_31 <= 1
 0 <= y_4_1_5_19 <= 1
 0 <= y_4_3_5_21 <= 1
 0 <= y_4_5_5_23 <= 1
 0 <= y_4_7_5_25 <= 1
 0 <= y_4_9_5_27 <= 1
 0 <= y_4_11_5_29 <= 1
 0 <= y_4_13_5_31 <= 1
 0 <= y_4_15_5_33 <= 1
 0 <= y_4_17_5_35 <= 1
 0 <= y_4_19_5_37 <= 1
 0 <= y_4_21_5_39 <= 1
 0 <= y_4_1_7_19 <= 1
 0 <= y_4_3_7_21 <= 1
 0 <= y_4_5_7_23 <= 1
 0 <= y_4_7_7_25 <= 1
 0 <= y_4_9_7_27 <= 1
 0 <= y_4_11_7_29 <= 1
 0 <= y_4_13_7_31 <= 1
 0 <= y_4_15_7_33 <= 1
 0 <= y_4_17_7_35 <= 1
 0 <= y_4_19_7_37 <= 1
 0 <= y_4_21_7_39 <= 1
 0 <= y_5_1_6_15 <= 1
 0 <= y_5_3_6_13 <= 1
 0 <= y_5_5_6_11 <= 1
 0 <= y_5_7_6_9 <= 1
 0 <= y_5_9_6_7 <= 1
 0 <= y_5_11_6_5 <= 1
 0 <= y_5_13_6_3 <= 1
 0 <= y_5_15_6_1 <= 1
 0 <= y_5_1_7_1 <= 1
 0 <= y_5_3_7_3 <= 1
 0 <= y_5_5_7_5 <= 1
 0 <= y_5_7_7_7 <= 1
 0 <= y_5_9_7_9 <= 1
 0 <= y_5_11_7_11 <= 1
 0 <= y_5_13_7_13 <= 1
 0 <= y_5_15_7_15 <= 1
 0 <= y_5_17_7_17 <= 1
 0 <= y_5_19_7_19 <= 1
 0 <= y_5_21_7_21 <= 1
 0 <= y_5_23_7_23 <= 1
 0 <= y_5_25_7_25 <= 1
 0 <= y_5_27_7_27 <= 1
 0 <= y_5_29_7_29 <= 1
 0 <= y_5_31_7_31 <= 1
 0 <= y_5_33_7_33 <= 1
 0 <= y_5_35_7_35 <= 1
 0 <= y_5_37_7_37 <= 1
 0 <= y_5_39_7_39 <= 1
 0 <= y_6_1_7_15 <= 1
 0 <= y_6_3_7_13 <= 1
 0 <= y_6_5_7_11 <= 1
 0 <= y_6_7_7_9 <= 1
 0 <= y_6_9_7_7 <= 1
 0 <= y_6_11_7_5 <= 1
 0 <= y_6_13_7_3 <= 1
 0 <= y_6_15_7_1 <= 1
 0 <= thr_0_1_0 <= 1
 0 <= thr_0_1_180 <= 1
 0 <= thr_0_1_360 <= 1
 0 <= thr_1_29_0 <= 1
 0 <= thr_1_29_180 <= 1
 0 <= thr_1_29_360 <= 1
 0 <= thr_2_11_0 <= 1
 0 <= thr_2_11_180 <= 1
 0 <= thr_2_11_360 <= 1
 0 <= thr_3_9_0 <= 1
 0 <= thr_3_9_180 <= 1
 0 <= thr_3_9_360 <= 1
 0 <= thr_4_31_0 <= 1
 0 <= thr_4_31_180 <= 1
 0 <= thr_4_31_360 <= 1
 0 <= thr_5_39_0 <= 1
 0 <= thr_5_39_180 <= 1
 0 <= thr_5_39_360 <= 1
 0 <= thr_6_15_0 <= 1
 0 <= thr_6_15_180 <= 1
 0 <= thr_6_15_360 <= 1
 0 <= thr_7_39_0 <= 1
 0 <= thr_7_39_180 <= 1
 0 <= thr_7_39_360 <= 1

Binaries
 y_0_1_2_11 y_0_1_4_21 y_0_1_5_39 y_0_1_7_39 y_1_1_2_1 y_1_1_4_11 y_1_3_4_9
 y_1_5_4_7 y_1_7_4_5 y_1_9_4_3 y_1_11_4_1 y_1_1_5_29 y_1_3_5_27 y_1_5_5_25
 y_1_7_5_23 y_1_9_5_21 y_1_11_5_19 y_1_13_5_17 y_1_15_5_15 y_1_17_5_13
 y_1_19_5_11 y_1_21_5_9 y_1_23_5_7 y_1_25_5_5 y_1_27_5_3 y_1_29_5_1 y_1_15_6_1
 y_1_17_6_3 y_1_19_6_5 y_1_21_6_7 y_1_23_6_9 y_1_25_6_11 y_1_27_6_13 y_1_29_6_15
 y_1_1_7_29 y_1_3_7_27 y_1_5_7_25 y_1_7_7_23 y_1_9_7_21 y_1_11_7_19 y_1_13_7_17
 y_1_15_7_15 y_1_17_7_13 y_1_19_7_11 y_1_21_7_9 y_1_23_7_7 y_1_25_7_5 y_1_27_7_3
 y_1_29_7_1 y_2_1_4_11 y_2_3_4_13 y_2_5_4_15 y_2_7_4_17 y_2_9_4_19 y_2_11_4_21
 y_2_1_5_29 y_2_3_5_31 y_2_5_5_33 y_2_7_5_35 y_2_9_5_37 y_2_11_5_39 y_2_1_7_29
 y_2_3_7_31 y_2_5_7_33 y_2_7_7_35 y_2_9_7_37 y_2_11_7_39 y_3_1_4_23 y_3_3_4_25
 y_3_5_4_27 y_3_7_4_29 y_3_9_4_31 y_4_1_5_19 y_4_3_5_21 y_4_5_5_23 y_4_7_5_25
 y_4_9_5_27 y_4_11_5_29 y_4_13_5_31 y_4_15_5_33 y_4_17_5_35 y_4_19_5_37
 y_4_21_5_39 y_4_1_7_19 y_4_3_7_21 y_4_5_7_23 y_4_7_7_25 y_4_9_7_27 y_4_11_7_29
 y_4_13_7_31 y_4_15_7_33 y_4_17_7_35 y_4_19_7_37 y_4_21_7_39 y_5_1_6_15
 y_5_3_6_13 y_5_5_6_11 y_5_7_6_9 y_5_9_6_7 y_5_11_6_5 y_5_13_6_3 y_5_15_6_1
 y_5_1_7_1 y_5_3_7_3 y_5_5_7_5 y_5_7_7_7 y_5_9_7_9 y_5_11_7_11 y_5_13_7_13
 y_5_15_7_15 y_5_17_7_17 y_5_19_7_19 y_5_21_7_21 y_5_23_7_23 y_5_25_7_25
 y_5_27_7_27 y_5_29_7_29 y_5_31_7_31 y_5_33_7_33 y_5_35_7_35 y_5_37_7_37
 y_5_39_7_39 y_6_1_7_15 y_6_3_7_13 y_6_5_7_11 y_6_7_7_9 y_6_9_7_7 y_6_11_7_5
 y_6_13_7_3 y_6_15_7_1 thr_0_1_0 thr_0_1_180 thr_0_1_360 thr_1_29_0 thr_1_29_180
 thr_1_29_360 thr_2_11_0 thr_2_11_180 thr_2_11_360 thr_3_9_0 thr_3_9_180
 thr_3_9_360 thr_4_31_0 thr_4_31_180 thr_4_31_360 thr_5_39_0 thr_5_39_180
 thr_5_39_360 thr_6_15_0 thr_6_15_180 thr_6_15_360 thr_7_39_0 thr_7_39_180
 thr_7_39_360
End
